; benchmark generated from python API
(set-info :status unknown)
(declare-fun S_5 () Real)
(declare-fun S_3 () Real)
(declare-fun C () Real)
(declare-fun S_4 () Real)
(declare-fun S_1 () Real)
(declare-fun S_2 () Real)
(declare-fun S_0 () Real)
(declare-fun A_0 () Real)
(declare-fun L_0 () Real)
(declare-fun L0 () Real)
(declare-fun B () Real)
(declare-fun A_1 () Real)
(declare-fun A_4 () Real)
(declare-fun A_2 () Real)
(declare-fun A_5 () Real)
(declare-fun L_5 () Real)
(declare-fun L_3 () Real)
(declare-fun L_2 () Real)
(declare-fun L_4 () Real)
(declare-fun L_1 () Real)
(declare-fun A_3 () Real)
(assert
 (let (($x42 (>= L0 0.0)))
 (let (($x876 (>= C 5.0)))
 (let (($x928 (>= B 5.0)))
 (let (($x22366 (<= 0.0 (+ C (* (- 1.0) A_1) L_0 S_0))))
 (let (($x22801 (not $x22366)))
 (let (($x21147 (<= (+ A_2 (* (- 1.0) A_1) (* (- 1.0) C)) 0.0)))
 (let ((?x335 (* (- 1.0) C)))
 (let ((?x267 (* (- 1.0) L_5)))
 (let ((?x630 (* (- 1.0) B)))
 (let ((?x20813 (+ ?x630 ?x267 A_5 ?x335)))
 (let (($x21035 (<= (+ A_4 (* (- 1.0) L_0)) ?x20813)))
 (let (($x9575 (= L_5 L_0)))
 (let (($x1868 (not (= L_0 L_3))))
 (let (($x42264 (or $x1868 $x9575 $x21035 $x21147 $x22801 (not (<= (+ A_4 (* (- 1.0) A_1) (* (- 3.0) C)) 0.0)))))
 (let ((?x2047 (* (- 4.0) C)))
 (let ((?x20536 (+ ?x630 ?x267 A_5 ?x2047)))
 (let ((?x690 (* (- 1.0) L_0)))
 (let ((?x969 (+ A_1 ?x690)))
 (let (($x21845 (<= ?x969 ?x20536)))
 (let (($x21609 (<= (+ A_4 (* (- 1.0) A_1) (* (- 3.0) C)) 0.0)))
 (let (($x994 (not (<= L_3 L_2))))
 (let (($x99 (= L_5 L_4)))
 (let ((?x1675 (* (- 3.0) C)))
 (let ((?x20714 (+ ?x630 ?x267 A_5 ?x1675)))
 (let ((?x1466 (+ A_2 ?x690)))
 (let (($x21937 (<= ?x1466 ?x20714)))
 (let (($x991 (not (<= L_2 L_1))))
 (let (($x987 (not (<= L_1 L_0))))
 (let ((?x2065 (* (- 5.0) C)))
 (let ((?x296 (+ ?x630 ?x267 A_5 ?x2065)))
 (let (($x409 (<= S_0 ?x296)))
 (let ((?x358 (* (- 1.0) L_1)))
 (let ((?x1038 (+ A_2 ?x358)))
 (let (($x2614 (>= S_3 ?x1038)))
 (let (($x26134 (or $x2614 $x22366 (<= (+ (* 2.0 C) (* (- 1.0) S_3) S_0) 0.0))))
 (let (($x27918 (or (= (+ ?x2047 ?x630 (* (- 1.0) A_1) A_5 ?x267 L_0) 0.0) (not $x21845))))
 (let ((?x21169 (+ A_2 ?x358 C)))
 (let (($x21551 (>= S_4 ?x21169)))
 (let (($x42003 (or $x21551 $x22366 (<= (+ (* 3.0 C) S_0 (* (- 1.0) S_4)) 0.0))))
 (let (($x2496 (not (<= L_3 L_1))))
 (let (($x42025 (or $x99 $x987 $x2496 (<= (+ A_2 ?x690 L_5 (* (- 1.0) A_5) (* 3.0 C)) 0.0) $x21035)))
 (let (($x22220 (<= (+ ?x335 ?x690 (* (- 1.0) S_1) A_2) 0.0)))
 (let (($x22226 (not $x22220)))
 (let ((?x929 (* (- 2.0) C)))
 (let ((?x592 (* (- 1.0) A_2)))
 (let ((?x21390 (+ A_4 ?x592 ?x929)))
 (let (($x21391 (<= ?x21390 0.0)))
 (let (($x21785 (not $x21391)))
 (let (($x41728 (or $x99 $x987 $x991 (not (<= L_4 L_2)) (<= (+ A_3 ?x690 L_5 (* (- 1.0) A_5) (* 2.0 C)) 0.0) $x21035)))
 (let (($x41961 (or $x99 $x987 $x991 $x994 (<= (+ A_1 ?x690 L_5 (* (- 1.0) A_5) (* 4.0 C)) 0.0) $x21035 $x21937)))
 (let (($x2868 (= L_5 L_3)))
 (let (($x1310 (not (= L_3 L_4))))
 (let (($x23148 (or $x987 $x991 $x994 $x1310 $x2868 (<= (+ A_4 ?x690 L_5 (* (- 1.0) A_5) C) 0.0))))
 (let ((?x557 (* (- 1.0) L_4)))
 (let ((?x22210 (+ ?x630 ?x557 A_4 ?x1675)))
 (let (($x22287 (<= ?x969 ?x22210)))
 (let (($x7403 (= L_4 L_0)))
 (let (($x43598 (or (>= S_4 (+ A_2 ?x690 C)) $x22801 (<= (+ (* 2.0 C) ?x690 A_1 (* (- 1.0) S_4)) 0.0))))
 (let (($x26252 (or $x1868 $x7403 (<= (+ A_2 ?x690 L_4 (* (- 1.0) A_4) (* 2.0 C)) 0.0))))
 (let (($x22257 (not $x21147)))
 (let ((?x22189 (+ ?x630 ?x557 A_4 ?x929)))
 (let (($x22244 (<= ?x1466 ?x22189)))
 (let (($x261 (or $x7403 (not (<= (+ A_3 ?x690 L_4 (* (- 1.0) A_4) C) 0.0)) $x22244 $x22257 $x22801)))
 (let (($x27292 (or (>= S_3 ?x1466) (<= (+ C ?x690 A_1 (* (- 1.0) S_3)) 0.0) $x22801)))
 (let (($x25046 (or (= (+ ?x1675 A_4 ?x557 ?x630 L_0 (* (- 1.0) A_1)) 0.0) (not $x22287))))
 (let (($x22310 (not (= (+ A_2 ?x690 (* 2.0 C)) (+ A_4 ?x557 ?x630)))))
 (let (($x22094 (<= (+ A_3 ?x690 L_4 (* (- 1.0) A_4) C) 0.0)))
 (let (($x2215 (= L_4 L_2)))
 (let (($x652 (not (= L_2 L_3))))
 (let (($x27702 (or (= (+ A_4 ?x557 ?x630) (+ A_2 ?x690 (* 2.0 C))) (not $x22244))))
 (let ((?x569 (* (- 1.0) L_3)))
 (let ((?x21821 (+ ?x630 ?x569 A_3 ?x335)))
 (let (($x21966 (<= ?x1466 ?x21821)))
 (let ((?x21813 (+ ?x630 ?x569 A_3 ?x929)))
 (let (($x21814 (<= ?x969 ?x21813)))
 (let (($x79 (= L_3 L_2)))
 (let (($x2498 (= L_3 L_1)))
 (let (($x1363 (not (= L_1 L_2))))
 (let (($x22349 (or $x987 $x1363 $x2498 (<= (+ A_2 ?x690 L_3 (* (- 1.0) A_3) C) 0.0))))
 (let (($x26096 (or (<= (+ ?x690 A_1 (* (- 1.0) S_2)) 0.0) (<= (+ C (* (- 1.0) S_2) S_0) 0.0))))
 (let (($x1496 (not (= L_0 L_1))))
 (let (($x89 (= L_4 L_3)))
 (let (($x24576 (or $x89 $x1496 $x22244 (<= (+ A_1 ?x690 L_4 (* (- 1.0) A_4) (* 3.0 C)) 0.0))))
 (let (($x21883 (<= (+ A_1 ?x690 L_3 (* (- 1.0) A_3) (* 2.0 C)) 0.0)))
 (let (($x3356 (= L_2 L_0)))
 (let (($x22161 (or $x1496 $x3356 (not (= (+ A_3 ?x569) (+ A_2 (* (- 1.0) L_2) C))) $x21883)))
 (let (($x43644 (or (= (+ ?x929 ?x569 A_3 ?x630 L_0 (* (- 1.0) A_1)) 0.0) (not $x21814))))
 (let (($x1531 (not (= L_4 L_5))))
 (let (($x996 (not (<= L_4 L_3))))
 (let ((?x981 (+ A_5 ?x267 ?x630)))
 (let (($x21642 (= ?x981 (+ A_4 ?x358 C))))
 (let (($x21157 (<= A_2 (+ A_1 ?x630 C))))
 (let (($x21171 (not $x21157)))
 (let (($x5071 (= L_5 L_1)))
 (let (($x4933 (not (= L_1 L_4))))
 (let (($x997 (<= L_5 L_4)))
 (let ((?x21437 (+ A_5 ?x592 ?x1675)))
 (let (($x21438 (<= ?x21437 0.0)))
 (let (($x998 (not $x997)))
 (let (($x59 (= L_1 L_0)))
 (let (($x21570 (or $x59 $x994 $x996 $x998 $x21438 (<= (+ A_5 (* (- 1.0) A_1) ?x2047) 0.0))))
 (let ((?x584 (* (- 1.0) A_4)))
 (let ((?x21099 (+ A_5 ?x584 ?x335)))
 (let (($x21098 (<= ?x21099 0.0)))
 (let (($x42238 (or $x4933 $x5071 $x21157 $x21642 (not (<= A_4 (+ A_1 ?x630 (* 3.0 C)))))))
 (let (($x21625 (<= A_4 (+ A_1 ?x630 (* 3.0 C)))))
 (let (($x28205 (or $x59 $x99 $x991 $x994 $x21157 (= (+ A_5 ?x267) (+ A_1 ?x358 (* 4.0 C))) $x21625)))
 (let ((?x21199 (+ A_4 ?x569 C)))
 (let (($x21200 (= ?x981 ?x21199)))
 (let (($x42242 (or $x89 $x21171 (= (+ A_4 ?x557 ?x630) (+ A_2 ?x358 (* 2.0 C))))))
 (let (($x25501 (or $x59 $x89 $x21157 (= (+ A_4 ?x557) (+ A_1 ?x358 (* 3.0 C))))))
 (let ((?x563 (* (- 1.0) L_2)))
 (let ((?x311 (+ ?x630 ?x563 A_2 ?x335)))
 (let (($x524 (<= ?x969 ?x311)))
 (let (($x69 (= L_2 L_1)))
 (let (($x26240 (or (= (+ ?x335 ?x630 L_0 (* (- 1.0) A_1) A_2 ?x563) 0.0) (not $x524))))
 (let (($x3663 (= L_5 L_2)))
 (let (($x2250 (not (= L_2 L_4))))
 (let (($x42327 (or $x2250 $x3663 (not (<= A_4 (+ A_2 ?x630 (* 2.0 C)))) (= ?x981 (+ A_4 ?x563 C)))))
 (let (($x21368 (<= A_4 (+ A_2 ?x630 (* 2.0 C)))))
 (let (($x42434 (or $x69 $x99 $x994 (= (+ A_5 ?x267) (+ A_2 ?x563 (* 3.0 C))) $x21368)))
 (let (($x21188 (<= A_4 (+ A_3 ?x630 C))))
 (let (($x25832 (or $x79 $x99 $x21188 (= (+ A_5 ?x267) (+ A_3 ?x569 (* 2.0 C))))))
 (let (($x25488 (or $x59 $x79 $x21157 (= (+ A_3 ?x569) (+ A_1 ?x358 (* 2.0 C))))))
 (let (($x41 (>= L_0 L0)))
 (let (($x131 (>= S_1 S_0)))
 (let (($x134 (>= S_2 S_1)))
 (let (($x137 (>= S_3 S_2)))
 (let (($x140 (>= S_4 S_3)))
 (let (($x145 (>= A_1 A_0)))
 (let (($x146 (>= A_2 A_1)))
 (let (($x148 (>= A_4 A_3)))
 (and (<= (+ A_4 ?x557) S_5) (<= (+ A_2 ?x563) S_4) $x148 $x146 $x145 $x140 $x137 $x134 $x131 $x41 (or $x99 (<= S_5 ?x981)) (>= S_4 (+ A_3 ?x569 ?x630)) (>= S_3 (+ A_2 ?x563 ?x630)) (or $x59 (<= S_1 (+ A_1 ?x358 ?x630))) (not (<= (+ A_3 ?x569) S_4)) (or $x69 $x991) (or $x79 (<= S_3 (+ A_3 ?x569 ?x630))) (or $x69 (<= S_2 (+ A_2 ?x563 ?x630))) (or $x89 $x99 (= (+ A_5 ?x267) (+ A_4 ?x557 C))) (or $x69 (<= S_3 (+ A_2 ?x563 ?x630 C))) (or $x69 (<= S_1 ?x311)) (or $x99 $x998) (or $x59 $x987) (or $x89 $x996) (>= S_2 (+ A_1 ?x358 ?x630)) (or $x1363 (>= S_4 (+ A_2 ?x358 ?x630 C))) (>= S_4 (+ A_2 ?x563 ?x630 C)) (<= S_5 (+ A_5 ?x557)) (or $x59 (<= S_0 (+ ?x630 ?x358 A_1 ?x335))) (or $x59 $x69 (= (+ A_2 ?x563) (+ A_1 ?x358 C))) (or $x79 $x994) (or $x69 $x79 (= (+ A_3 ?x569) (+ A_2 ?x563 C))) (or $x79 $x89 (= (+ A_4 ?x557) (+ A_3 ?x569 C))) (>= S_1 (+ ?x630 ?x358 A_1 ?x335)) (or $x89 (<= S_5 (+ A_4 ?x557 ?x630 C))) (<= (+ ?x630 ?x358 A_1 ?x335) (+ A_0 ?x690)) (>= S_0 (+ ?x630 ?x358 A_1 ?x929)) (or $x69 $x652 (<= (+ A_3 ?x592 ?x335) 0.0)) (or $x69 $x89 (= (+ A_4 ?x557) (+ A_2 ?x563 (* 2.0 C)))) (or $x89 $x1531 $x21098) (or $x59 (<= S_2 (+ A_1 ?x358 ?x630 C))) $x25488 (or $x2498 (= (+ A_3 ?x569 ?x630) ?x21169) $x21171) (or $x99 (<= S_4 ?x20813)) (or $x79 (<= S_4 (+ A_3 ?x569 ?x630 C))) $x25832 (or $x79 $x1310 (<= (+ A_4 (* (- 1.0) A_3) ?x335) 0.0)) (or $x79 (<= S_5 (+ A_3 ?x569 ?x630 (* 2.0 C)))) $x42434 $x42327 (or $x69 $x994 $x996 $x21391) (or $x69 (<= S_5 (+ A_2 ?x563 ?x630 (* 3.0 C)))) (or $x69 (<= S_4 (+ A_2 ?x563 ?x630 (* 2.0 C)))) (or $x69 $x994 $x996 $x998 $x21438) $x26240 (>= S_2 ?x311) (or $x69 (<= S_0 (+ ?x630 ?x563 A_2 ?x929)) $x524) (<= (+ ?x630 ?x563 A_2 ?x929) (+ A_0 ?x690)) (or $x21157 (>= S_3 (+ A_1 ?x358 ?x630 C))) $x25501 $x42242 (or $x59 (<= S_3 (+ A_1 ?x358 ?x630 (* 2.0 C)))) (or $x21551 (>= S_4 (+ A_1 ?x358 ?x630 (* 2.0 C)))) (or $x2614 $x21171) (or $x2868 (not $x21188) $x21200) (or $x59 $x1363 $x21147) (>= S_3 ?x20714) $x28205 (or $x1310 $x2868 (<= S_2 ?x20714) $x21200) $x42238 (or $x59 $x652 $x991 (<= (+ A_3 (* (- 1.0) A_1) ?x929) 0.0)) (or $x59 (<= S_4 (+ A_1 ?x358 ?x630 (* 3.0 C)))) (or $x59 $x994 $x1310 $x21391 $x21609) (or $x79 $x1531 $x21098 (<= (+ A_5 (* (- 1.0) A_3) ?x929) 0.0)) (or $x59 (<= S_5 (+ A_1 ?x358 ?x630 (* 4.0 C)))) $x21570 (<= S_5 ?x21199) (or (not (= L_3 L_5)) (<= ?x21099 B)) (or $x997 $x2496 $x21171 $x21391 (= ?x981 (+ A_2 ?x358 (* 3.0 C)))) (or $x4933 $x5071 $x21171 $x21642 $x21785) (<= S_5 (+ A_2 ?x358 (* 3.0 C))) (or $x996 $x1531 $x2496 (<= ?x21437 B)) (<= (+ L_0 (* (- 1.0) A_1) S_1) 0.0) (<= S_2 ?x1038) (or $x79 (<= S_2 ?x21821)) (>= S_2 ?x21813) (<= (+ ?x630 ?x569 A_3 ?x1675) (+ A_0 ?x690)) (<= S_3 ?x21169) (or (= (+ ?x335 ?x630 L_0 ?x592 A_3 ?x569) 0.0) (not $x21966)) (or $x79 $x987 $x21966 (<= S_1 ?x21813)) (>= S_1 (+ ?x630 ?x563 A_2 ?x929)) (<= (+ ?x335 L_0 S_1 (* (- 1.0) A_0)) 0.0) $x43644 (>= S_0 (+ ?x630 ?x563 A_2 ?x1675)) $x22161 (or $x1496 $x3356 (<= (+ A_1 ?x690 L_2 ?x592 C) 0.0)) (or $x79 $x1496 $x21883 $x21966) $x24576 $x26096 (or $x1868 $x7403 (<= S_3 (+ ?x630 ?x557 A_4 ?x335))) $x22349 (>= S_3 ?x21821) (>= S_1 (+ ?x630 ?x569 A_3 ?x1675)) (>= S_0 (+ ?x630 ?x569 A_3 ?x2047)) (or $x79 $x987 $x21814 (<= S_0 (+ ?x630 ?x569 A_3 ?x1675)) $x21966) $x27702 (or $x652 $x987 $x991 $x2215 $x22094) (<= (+ ?x929 S_1 (* (- 1.0) S_0)) 0.0) (or $x22310 (<= (+ ?x1675 ?x690 (* (- 1.0) S_0) A_2) 0.0)) (or $x21147 $x22310) (>= S_4 (+ ?x630 ?x557 A_4 ?x335)) (or $x1310 (<= (+ A_4 (* (- 1.0) A_3) ?x335) 0.0) (<= ?x21390 B)) $x25046 $x27292 (or $x1868 $x7403 (<= S_0 (+ ?x630 ?x557 A_4 ?x2047)) $x22244 $x22366) (>= S_0 (+ ?x630 ?x557 A_4 ?x2065)) $x261 $x26252 (or $x1868 $x7403 (<= S_2 ?x22189)) (<= (+ ?x630 ?x557 A_4 ?x2047) (+ A_0 ?x690)) (>= S_3 ?x22189) (>= S_2 ?x22210) (>= S_1 (+ ?x630 ?x557 A_4 ?x2047)) (or $x1868 $x7403 (<= S_1 ?x22210) $x22244) $x43598 (or $x1868 $x7403 $x21147 $x22287 $x22801) $x23148 (or (not (= L_1 L_3)) (<= (+ A_3 ?x592 ?x335) B)) (or (not $x21937) (= (+ ?x1675 ?x630 ?x592 A_5 ?x267 L_0) 0.0)) (>= S_0 (+ ?x630 ?x267 A_5 (* (- 6.0) C))) (or (not $x21035) (= ?x981 (+ A_4 ?x690 C))) (<= (+ ?x929 L_0 (* (- 1.0) A_0) S_2) 0.0) $x41961 (or $x99 $x987 $x991 $x994 $x21035 (<= S_3 (+ ?x630 ?x267 A_5 ?x929))) $x41728 (or $x99 $x987 $x991 $x994 $x21035 (<= S_1 ?x20536) $x22220) (or $x99 (not (<= L_3 L_0)) $x21391 $x21937 $x22226) (>= S_4 (+ ?x630 ?x267 A_5 ?x929)) (>= S_2 ?x20536) (<= ?x296 (+ A_0 ?x690)) (or $x1868 $x9575 $x21035 $x21785 $x22226) (or $x21551 (<= (+ (* 2.0 C) S_1 (* (- 1.0) S_4)) 0.0)) (<= (+ ?x929 (* (- 1.0) S_1) S_2) 0.0) $x42025 $x42003 (or $x2614 (<= (+ C S_1 (* (- 1.0) S_3)) 0.0)) (<= (+ ?x929 (* (- 1.0) S_2) S_3) 0.0) (<= (+ ?x1675 L_0 (* (- 1.0) A_0) S_3) 0.0) (>= S_1 ?x296) $x27918 (<= (+ ?x335 L_0 (* (- 1.0) A_1) S_2) 0.0) $x26134 (<= (+ ?x1675 S_2 (* (- 1.0) S_0)) 0.0) (or $x99 $x409 $x987 $x2496 $x21035 $x21937 $x22257) (or $x99 $x409 $x987 $x991 $x994 $x21035 $x21937 $x22366) (<= (+ ?x929 L_0 (* (- 1.0) A_1) S_3) 0.0) (<= (+ ?x2047 S_3 (* (- 1.0) S_0)) 0.0) (<= (+ ?x929 S_5 (* (- 1.0) S_4)) 0.0) (<= (+ ?x2047 (* (- 1.0) S_2) S_5) 0.0) (<= (+ ?x2065 (* (- 1.0) S_1) S_5) 0.0) (<= (+ ?x2047 (* (- 1.0) S_1) S_4) 0.0) (<= S_4 (+ A_2 ?x358 (* 2.0 C))) (<= (+ ?x1675 (* (- 1.0) S_2) S_4) 0.0) (or $x99 $x994 (not (<= L_2 L_0)) $x21147 $x21609 $x21845 $x22801) $x42264 (<= (+ ?x2047 L_0 (* (- 1.0) A_0) S_4) 0.0) (<= (+ (* (- 6.0) C) (* (- 1.0) S_0) S_5) 0.0) (<= (+ ?x2065 (* (- 1.0) S_0) S_4) 0.0) (<= (+ ?x1675 (* (- 1.0) A_1) L_0 S_4) 0.0) (<= (+ L_0 (* (- 1.0) A_1) ?x2047 S_5) 0.0) (<= (+ ?x2065 L_0 (* (- 1.0) A_0) S_5) 0.0) $x928 $x876 $x42 (<= (+ L_0 (* (- 1.0) A_0) S_0) 0.0) (<= (+ C S_2 (* (- 1.0) S_4)) 0.0) (<= (+ ?x1675 (* (- 1.0) S_1) S_3) 0.0) (<= (+ ?x929 (* (- 1.0) S_3) S_4) 0.0) (<= (+ ?x1675 (* (- 1.0) S_3) S_5) 0.0)))))))))))))))))))))))))))))))))))))))))))))))))))))))))))))))))))))))))))))))))))))))))))))))))))))))))))))))))))))))))))))))))))))))
(check-sat)
